Welcome to the CBC MILP Solver 
Version: 2.10.7 
Build Date: Feb 14 2022 

command line - cbc inputs/new_no_tr/order/jump_2_50_reverse_tiers_input.lp sec 1800 solve solu solutions/new_no_tr/jump_2_50_reverse_tiers_input.lp (default strategy 1)
seconds was changed from 1e+100 to 1800
Continuous objective value is 31261.3 - 10.80 seconds
Cgl0002I 224 variables fixed
Cgl0003I 0 fixed, 15 tightened bounds, 1568 strengthened rows, 0 substitutions
Cgl0003I 0 fixed, 29 tightened bounds, 752 strengthened rows, 0 substitutions
Cgl0003I 0 fixed, 3 tightened bounds, 90 strengthened rows, 0 substitutions
Cgl0003I 0 fixed, 0 tightened bounds, 9 strengthened rows, 0 substitutions
Cgl0004I processed model has 9671 rows, 2843 columns (2843 integer (2792 of which binary)) and 33027 elements
Cutoff increment increased from 1e-05 to 0.9999
Cbc0045I 1 integer variables out of 2843 objects (2843 integer) have cost of 1 - high priority
Cbc0045I branch on satisfied Y create fake objective Y random cost Y
Cbc0038I Initial state - 1893 integers unsatisfied sum - 572.697
Cbc0038I Pass   1: (20.21 seconds) suminf.  120.83016 (675) obj. 66551.1 iterations 9857
Cbc0038I Pass   2: (21.38 seconds) suminf.   61.26550 (495) obj. 77579 iterations 3238
Cbc0038I Pass   3: (21.72 seconds) suminf.   57.92617 (506) obj. 77802.8 iterations 824
Cbc0038I Pass   4: (22.65 seconds) suminf.   53.44724 (509) obj. 77606 iterations 2306
Cbc0038I Pass   5: (22.82 seconds) suminf.   51.77221 (502) obj. 77691.7 iterations 308
Cbc0038I Pass   6: (22.89 seconds) suminf.   51.70989 (497) obj. 77691.8 iterations 141
Cbc0038I Pass   7: (24.22 seconds) suminf.   44.72409 (484) obj. 82480 iterations 3826
Cbc0038I Pass   8: (24.69 seconds) suminf.   44.34140 (476) obj. 81774 iterations 1141
Cbc0038I Pass   9: (25.22 seconds) suminf.   41.05366 (466) obj. 86255.4 iterations 1327
Cbc0038I Pass  10: (25.43 seconds) suminf.   39.21269 (478) obj. 91367 iterations 441
Cbc0038I Pass  11: (25.84 seconds) suminf.   36.46315 (459) obj. 86005.1 iterations 1049
Cbc0038I Pass  12: (25.88 seconds) suminf.   36.41762 (454) obj. 85927.1 iterations 59
Cbc0038I Pass  13: (26.18 seconds) suminf.   36.63161 (449) obj. 85372.2 iterations 651
Cbc0038I Pass  14: (26.37 seconds) suminf.   34.99110 (456) obj. 87151.2 iterations 367
Cbc0038I Pass  15: (26.58 seconds) suminf.   33.84253 (459) obj. 88493.8 iterations 496
Cbc0038I Pass  16: (27.14 seconds) suminf.   33.63776 (457) obj. 88262.4 iterations 1512
Cbc0038I Pass  17: (27.78 seconds) suminf.   31.90848 (439) obj. 78458.7 iterations 1875
Cbc0038I Pass  18: (27.98 seconds) suminf.   28.68189 (438) obj. 73457 iterations 457
Cbc0038I Pass  19: (28.40 seconds) suminf.   30.37230 (430) obj. 69828.7 iterations 1246
Cbc0038I Pass  20: (28.70 seconds) suminf.   27.08478 (421) obj. 67584 iterations 805
Cbc0038I Pass  21: (28.74 seconds) suminf.   26.69680 (420) obj. 67584 iterations 78
Cbc0038I Pass  22: (29.18 seconds) suminf.   29.13778 (406) obj. 67584 iterations 1237
Cbc0038I Pass  23: (29.21 seconds) suminf.   28.63661 (401) obj. 67584 iterations 45
Cbc0038I Pass  24: (29.23 seconds) suminf.   27.39431 (401) obj. 67584 iterations 24
Cbc0038I Pass  25: (29.42 seconds) suminf.   28.52054 (389) obj. 67584 iterations 447
Cbc0038I Pass  26: (29.60 seconds) suminf.   26.53760 (364) obj. 67584 iterations 392
Cbc0038I Pass  27: (29.77 seconds) suminf.   26.94063 (367) obj. 67584 iterations 363
Cbc0038I Pass  28: (29.83 seconds) suminf.   25.58875 (369) obj. 67584 iterations 119
Cbc0038I Pass  29: (29.85 seconds) suminf.   25.58910 (371) obj. 67584 iterations 35
Cbc0038I Pass  30: (30.13 seconds) suminf.   26.24476 (355) obj. 67584 iterations 710
Cbc0038I Pass  31: (30.28 seconds) suminf.   26.20735 (360) obj. 67584 iterations 308
Cbc0038I Pass  32: (30.52 seconds) suminf.   29.83712 (375) obj. 68603.4 iterations 684
Cbc0038I Pass  33: (30.62 seconds) suminf.   28.94603 (384) obj. 68978.8 iterations 216
Cbc0038I Pass  34: (30.88 seconds) suminf.   25.83455 (371) obj. 65555.2 iterations 661
Cbc0038I Pass  35: (30.90 seconds) suminf.   25.05368 (372) obj. 65555.2 iterations 24
Cbc0038I Pass  36: (30.92 seconds) suminf.   25.02501 (372) obj. 65555.2 iterations 23
Cbc0038I Pass  37: (31.15 seconds) suminf.   25.38657 (378) obj. 65555.2 iterations 444
Cbc0038I Pass  38: (31.20 seconds) suminf.   25.02158 (380) obj. 65555.2 iterations 106
Cbc0038I Pass  39: (31.35 seconds) suminf.   25.91157 (352) obj. 66021.1 iterations 284
Cbc0038I Pass  40: (31.51 seconds) suminf.   24.71011 (355) obj. 65555.2 iterations 389
Cbc0038I Pass  41: (31.56 seconds) suminf.   24.56903 (358) obj. 65555.2 iterations 102
Cbc0038I Pass  42: (31.82 seconds) suminf.   25.84270 (359) obj. 68938.3 iterations 695
Cbc0038I Pass  43: (31.98 seconds) suminf.   23.25143 (359) obj. 69560.9 iterations 331
Cbc0038I Pass  44: (32.42 seconds) suminf.   21.71483 (339) obj. 65575.2 iterations 1291
Cbc0038I Pass  45: (32.47 seconds) suminf.   19.66454 (352) obj. 65555.2 iterations 106
Cbc0038I Pass  46: (32.70 seconds) suminf.   26.13992 (334) obj. 70859.4 iterations 620
Cbc0038I Pass  47: (32.82 seconds) suminf.   22.86920 (333) obj. 75029.7 iterations 259
Cbc0038I Pass  48: (32.84 seconds) suminf.   22.67760 (333) obj. 75034.1 iterations 25
Cbc0038I Pass  49: (33.16 seconds) suminf.   20.23745 (352) obj. 68643 iterations 924
Cbc0038I Pass  50: (33.30 seconds) suminf.   20.30772 (355) obj. 69714.4 iterations 284
Cbc0038I Pass  51: (33.74 seconds) suminf.   18.44583 (333) obj. 70700.8 iterations 1195
Cbc0038I Pass  52: (33.85 seconds) suminf.   16.66441 (323) obj. 72028.2 iterations 217
Cbc0038I Pass  53: (33.87 seconds) suminf.   16.48616 (323) obj. 72236 iterations 13
Cbc0038I Pass  54: (34.08 seconds) suminf.   16.49306 (322) obj. 73633.6 iterations 520
Cbc0038I Pass  55: (34.27 seconds) suminf.   14.61238 (313) obj. 72312.5 iterations 425
Cbc0038I Pass  56: (34.36 seconds) suminf.   14.13189 (313) obj. 72227.8 iterations 206
Cbc0038I Pass  57: (34.78 seconds) suminf.   16.08649 (316) obj. 66881.7 iterations 1217
Cbc0038I Pass  58: (34.95 seconds) suminf.   13.79669 (315) obj. 66464.7 iterations 438
Cbc0038I Pass  59: (35.12 seconds) suminf.   15.62208 (295) obj. 66492.4 iterations 498
Cbc0038I Pass  60: (35.21 seconds) suminf.   14.93708 (306) obj. 67480.4 iterations 215
Cbc0038I Pass  61: (35.49 seconds) suminf.   14.10893 (298) obj. 68870 iterations 804
Cbc0038I Pass  62: (35.54 seconds) suminf.   13.47515 (283) obj. 68873.7 iterations 147
Cbc0038I Pass  63: (35.87 seconds) suminf.   15.58923 (291) obj. 69880.9 iterations 967
Cbc0038I Pass  64: (35.89 seconds) suminf.   15.51711 (290) obj. 69880.8 iterations 33
Cbc0038I Pass  65: (36.17 seconds) suminf.   14.54526 (257) obj. 68297 iterations 777
Cbc0038I Pass  66: (36.20 seconds) suminf.   13.51318 (257) obj. 68292.8 iterations 54
Cbc0038I Pass  67: (36.48 seconds) suminf.   13.86340 (285) obj. 69071.1 iterations 780
Cbc0038I Pass  68: (36.57 seconds) suminf.   14.15547 (275) obj. 69070.9 iterations 191
Cbc0038I Pass  69: (36.86 seconds) suminf.   11.59556 (226) obj. 68999.7 iterations 910
Cbc0038I Pass  70: (36.95 seconds) suminf.   11.08707 (226) obj. 68989 iterations 223
Cbc0038I Pass  71: (37.45 seconds) suminf.    7.02381 (171) obj. 68187.9 iterations 1440
Cbc0038I Pass  72: (39.12 seconds) suminf.    6.03898 (176) obj. 67506.7 iterations 4381
Cbc0038I Pass  73: (39.15 seconds) suminf.    5.99854 (175) obj. 67506.7 iterations 71
Cbc0038I Pass  74: (40.01 seconds) suminf.    9.04542 (168) obj. 71657.2 iterations 2359
Cbc0038I Pass  75: (40.02 seconds) suminf.    9.04542 (168) obj. 71657.2 iterations 3
Cbc0038I Pass  76: (40.72 seconds) suminf.    7.03131 (107) obj. 81368.2 iterations 1731
Cbc0038I Pass  77: (41.03 seconds) suminf.    1.77127 (72) obj. 67584 iterations 565
Cbc0038I Pass  78: (41.05 seconds) suminf.    1.70373 (73) obj. 67584 iterations 20
Cbc0038I Pass  79: (41.19 seconds) suminf.    0.21649 (11) obj. 67584 iterations 190
Cbc0038I Pass  80: (41.27 seconds) suminf.    0.21649 (11) obj. 67584 iterations 94
Cbc0038I Pass  81: (41.38 seconds) suminf.    0.00000 (0) obj. 74752 iterations 152
Cbc0038I Solution found of 74752
Cbc0038I Cleaned solution of 74752
Cbc0038I Before mini branch and bound, 632 integers at bound fixed and 0 continuous
Cbc0038I Mini branch and bound did not improve solution (41.68 seconds)
Cbc0038I Round again with cutoff of 70410.2
Cbc0038I Pass  82: (41.70 seconds) suminf.  120.83016 (675) obj. 66551.1 iterations 0
Cbc0038I Pass  83: (43.28 seconds) suminf.   65.13356 (509) obj. 70410.2 iterations 3879
Cbc0038I Pass  84: (43.61 seconds) suminf.   62.09762 (510) obj. 70410.2 iterations 829
Cbc0038I Pass  85: (43.74 seconds) suminf.   62.22275 (507) obj. 70410.2 iterations 253
Cbc0038I Pass  86: (43.95 seconds) suminf.   60.87299 (506) obj. 70410.2 iterations 423
Cbc0038I Pass  87: (44.06 seconds) suminf.   60.10854 (518) obj. 70410.2 iterations 210
Cbc0038I Pass  88: (44.39 seconds) suminf.   48.43526 (474) obj. 70410.2 iterations 930
Cbc0038I Pass  89: (44.57 seconds) suminf.   43.94943 (487) obj. 70410.2 iterations 432
Cbc0038I Pass  90: (44.64 seconds) suminf.   43.18858 (473) obj. 70410.2 iterations 178
Cbc0038I Pass  91: (44.99 seconds) suminf.   39.33377 (461) obj. 70410.2 iterations 1061
Cbc0038I Pass  92: (45.09 seconds) suminf.   38.25280 (453) obj. 70410.2 iterations 263
Cbc0038I Pass  93: (45.11 seconds) suminf.   38.25280 (453) obj. 70410.2 iterations 9
Cbc0038I Pass  94: (45.35 seconds) suminf.   36.01912 (441) obj. 70410.2 iterations 796
Cbc0038I Pass  95: (45.42 seconds) suminf.   35.26306 (446) obj. 70410.2 iterations 195
Cbc0038I Pass  96: (45.85 seconds) suminf.   34.51619 (444) obj. 70410.2 iterations 1257
Cbc0038I Pass  97: (45.97 seconds) suminf.   33.65106 (437) obj. 70410.2 iterations 236
Cbc0038I Pass  98: (46.37 seconds) suminf.   30.91365 (426) obj. 70410.2 iterations 1152
Cbc0038I Pass  99: (46.62 seconds) suminf.   30.14147 (436) obj. 70410.2 iterations 599
Cbc0038I Pass 100: (46.83 seconds) suminf.   29.53792 (426) obj. 70410.2 iterations 594
Cbc0038I Pass 101: (46.98 seconds) suminf.   28.19564 (451) obj. 70410.2 iterations 382
Cbc0038I Pass 102: (47.28 seconds) suminf.   27.86573 (417) obj. 70410.2 iterations 937
Cbc0038I Pass 103: (47.46 seconds) suminf.   26.09660 (417) obj. 70410.2 iterations 475
Cbc0038I Pass 104: (47.76 seconds) suminf.   27.96504 (404) obj. 70410.2 iterations 746
Cbc0038I Pass 105: (47.92 seconds) suminf.   27.91158 (412) obj. 70410.2 iterations 331
Cbc0038I Pass 106: (48.20 seconds) suminf.   25.92511 (381) obj. 70410.2 iterations 748
Cbc0038I Pass 107: (48.23 seconds) suminf.   23.55229 (374) obj. 70410.2 iterations 62
Cbc0038I Pass 108: (48.44 seconds) suminf.   21.79537 (365) obj. 70410.2 iterations 557
Cbc0038I Pass 109: (48.60 seconds) suminf.   20.63096 (358) obj. 70410.2 iterations 301
Cbc0038I Pass 110: (48.67 seconds) suminf.   19.57372 (358) obj. 70410.2 iterations 202
Cbc0038I Pass 111: (48.79 seconds) suminf.   19.56856 (335) obj. 70410.2 iterations 314
Cbc0038I Pass 112: (48.84 seconds) suminf.   18.93683 (335) obj. 70410.2 iterations 115
Cbc0038I Pass 113: (48.98 seconds) suminf.   17.37785 (343) obj. 70410.2 iterations 381
Cbc0038I Pass 114: (49.07 seconds) suminf.   16.85263 (347) obj. 70410.2 iterations 233
Cbc0038I Pass 115: (49.34 seconds) suminf.   19.55341 (329) obj. 70410.2 iterations 727
Cbc0038I Pass 116: (49.41 seconds) suminf.   17.76608 (326) obj. 70410.2 iterations 186
Cbc0038I Pass 117: (49.65 seconds) suminf.   14.76922 (302) obj. 70410.2 iterations 652
Cbc0038I Pass 118: (49.70 seconds) suminf.   14.75808 (309) obj. 70410.2 iterations 155
Cbc0038I Pass 119: (50.27 seconds) suminf.   11.75246 (292) obj. 70410.2 iterations 1472
Cbc0038I Pass 120: (50.40 seconds) suminf.   11.28344 (275) obj. 70410.2 iterations 353
Cbc0038I Pass 121: (50.61 seconds) suminf.   11.17966 (255) obj. 70410.2 iterations 631
Cbc0038I Pass 122: (50.76 seconds) suminf.   10.49038 (251) obj. 70410.2 iterations 464
Cbc0038I Pass 123: (50.89 seconds) suminf.   11.11088 (259) obj. 70410.2 iterations 388
Cbc0038I Pass 124: (50.92 seconds) suminf.   10.72551 (258) obj. 70410.2 iterations 60
Cbc0038I Pass 125: (51.04 seconds) suminf.    9.25053 (232) obj. 70410.2 iterations 421
Cbc0038I Pass 126: (51.13 seconds) suminf.    8.90297 (243) obj. 70410.2 iterations 357
Cbc0038I Pass 127: (51.65 seconds) suminf.    9.55700 (211) obj. 70410.2 iterations 1457
Cbc0038I Pass 128: (51.68 seconds) suminf.    9.05086 (209) obj. 70410.2 iterations 39
Cbc0038I Pass 129: (52.41 seconds) suminf.   18.49937 (270) obj. 70410.2 iterations 2247
Cbc0038I Pass 130: (52.57 seconds) suminf.   16.70467 (277) obj. 70410.2 iterations 365
Cbc0038I Pass 131: (52.63 seconds) suminf.   16.65703 (284) obj. 70410.2 iterations 142
Cbc0038I Pass 132: (53.08 seconds) suminf.    8.77231 (228) obj. 70410.2 iterations 1235
Cbc0038I Pass 133: (53.27 seconds) suminf.    6.05841 (175) obj. 70410.2 iterations 432
Cbc0038I Pass 134: (53.55 seconds) suminf.    7.59573 (201) obj. 70410.2 iterations 628
Cbc0038I Pass 135: (53.59 seconds) suminf.    6.97036 (204) obj. 70410.2 iterations 65
Cbc0038I Pass 136: (54.29 seconds) suminf.   11.78894 (177) obj. 70410.2 iterations 1522
Cbc0038I Pass 137: (54.45 seconds) suminf.   11.58427 (190) obj. 70410.2 iterations 305
Cbc0038I Pass 138: (54.82 seconds) suminf.    6.30545 (151) obj. 70410.2 iterations 648
Cbc0038I Pass 139: (54.89 seconds) suminf.    6.29797 (149) obj. 70410.2 iterations 131
Cbc0038I Pass 140: (55.54 seconds) suminf.    1.20967 (57) obj. 70410.2 iterations 1271
Cbc0038I Pass 141: (55.56 seconds) suminf.    1.17715 (59) obj. 70410.2 iterations 22
Cbc0038I Pass 142: (55.82 seconds) suminf.    0.61693 (27) obj. 70410.2 iterations 405
Cbc0038I Pass 143: (55.92 seconds) suminf.    0.51954 (17) obj. 70410.2 iterations 141
Cbc0038I Pass 144: (56.04 seconds) suminf.    0.41191 (12) obj. 70410.2 iterations 153
Cbc0038I Pass 145: (56.07 seconds) suminf.    0.18412 (1) obj. 70410.2 iterations 27
Cbc0038I Solution found of 70410.2
Cbc0038I Branch and bound needed to clear up 1 general integers
Cbc0038I Full problem 9672 rows 2843 columns, reduced to 0 rows 0 columns
Cbc0038I Cleaned solution of 68608
Cbc0038I Before mini branch and bound, 639 integers at bound fixed and 0 continuous
Cbc0038I Full problem 9671 rows 2843 columns, reduced to 8356 rows 2204 columns - 625 fixed gives 3509, 859 - ok now
Cbc0038I Full problem 9671 rows 2843 columns, reduced to 158 rows 58 columns
Cbc0038I Mini branch and bound did not improve solution (64.10 seconds)
Cbc0038I Round again with cutoff of 61154.2
Cbc0038I Pass 146: (64.33 seconds) suminf.  124.60105 (680) obj. 61154 iterations 248
Cbc0038I Pass 147: (66.15 seconds) suminf.   70.99146 (518) obj. 61154.2 iterations 4227
Cbc0038I Pass 148: (66.32 seconds) suminf.   66.06350 (538) obj. 61154.2 iterations 388
Cbc0038I Pass 149: (66.91 seconds) suminf.   60.72735 (535) obj. 61154.2 iterations 1598
Cbc0038I Pass 150: (67.85 seconds) suminf.   49.16261 (514) obj. 61154.2 iterations 2512
Cbc0038I Pass 151: (67.87 seconds) suminf.   49.14823 (514) obj. 61154.2 iterations 11
Cbc0038I Pass 152: (68.51 seconds) suminf.   44.29180 (531) obj. 61154.2 iterations 1740
Cbc0038I Pass 153: (68.64 seconds) suminf.   42.93950 (513) obj. 61154.2 iterations 260
Cbc0038I Pass 154: (69.30 seconds) suminf.   38.98306 (475) obj. 61154.2 iterations 1912
Cbc0038I Pass 155: (69.35 seconds) suminf.   38.45968 (480) obj. 61154.2 iterations 84
Cbc0038I Pass 156: (69.93 seconds) suminf.   37.80693 (472) obj. 61154.2 iterations 1489
Cbc0038I Pass 157: (70.15 seconds) suminf.   36.70734 (486) obj. 61154.2 iterations 556
Cbc0038I Pass 158: (70.38 seconds) suminf.   35.25309 (485) obj. 61154.2 iterations 585
Cbc0038I Pass 159: (70.67 seconds) suminf.   36.39470 (482) obj. 61154.2 iterations 694
Cbc0038I Pass 160: (70.88 seconds) suminf.   34.78071 (480) obj. 61154.2 iterations 464
Cbc0038I Pass 161: (70.93 seconds) suminf.   34.90357 (484) obj. 61154.2 iterations 100
Cbc0038I Pass 162: (71.50 seconds) suminf.   36.01691 (487) obj. 61154.2 iterations 1306
Cbc0038I Pass 163: (71.61 seconds) suminf.   35.52856 (477) obj. 61154.2 iterations 213
Cbc0038I Pass 164: (71.98 seconds) suminf.   34.39449 (460) obj. 61154.2 iterations 989
Cbc0038I Pass 165: (72.05 seconds) suminf.   33.63350 (450) obj. 61154.2 iterations 158
Cbc0038I Pass 166: (72.34 seconds) suminf.   34.64721 (471) obj. 61154.2 iterations 708
Cbc0038I Pass 167: (72.38 seconds) suminf.   34.34660 (466) obj. 61154.2 iterations 50
Cbc0038I Pass 168: (72.59 seconds) suminf.   33.03261 (461) obj. 61154.2 iterations 483
Cbc0038I Pass 169: (72.61 seconds) suminf.   33.02383 (462) obj. 61154.2 iterations 40
Cbc0038I Pass 170: (73.30 seconds) suminf.   32.34764 (455) obj. 61154.2 iterations 2142
Cbc0038I Pass 171: (73.33 seconds) suminf.   32.24577 (455) obj. 61154.2 iterations 33
Cbc0038I Pass 172: (74.21 seconds) suminf.   33.44035 (446) obj. 61154.2 iterations 2264
Cbc0038I Pass 173: (74.32 seconds) suminf.   32.79436 (429) obj. 61154.2 iterations 219
Cbc0038I Pass 174: (74.65 seconds) suminf.   30.03567 (448) obj. 61154.2 iterations 876
Cbc0038I Pass 175: (74.67 seconds) suminf.   30.00564 (431) obj. 61154.2 iterations 26
Cbc0038I Pass 176: (74.99 seconds) suminf.   34.36156 (449) obj. 61154.2 iterations 973
Cbc0038I Pass 177: (75.06 seconds) suminf.   33.06490 (475) obj. 61154.2 iterations 182
Cbc0038I Pass 178: (75.69 seconds) suminf.   30.63819 (409) obj. 61154.2 iterations 1966
Cbc0038I Pass 179: (75.74 seconds) suminf.   30.07879 (420) obj. 61154.2 iterations 125
Cbc0038I Pass 180: (75.94 seconds) suminf.   35.17232 (453) obj. 61154.2 iterations 591
Cbc0038I Pass 181: (76.13 seconds) suminf.   33.84705 (457) obj. 61154.2 iterations 522
Cbc0038I Pass 182: (76.63 seconds) suminf.   30.28400 (405) obj. 61154.2 iterations 1417
Cbc0038I Pass 183: (76.69 seconds) suminf.   30.21158 (405) obj. 61154.2 iterations 148
Cbc0038I Pass 184: (76.94 seconds) suminf.   34.13937 (461) obj. 61154.2 iterations 728
Cbc0038I Pass 185: (77.11 seconds) suminf.   30.62963 (448) obj. 61154.2 iterations 359
Cbc0038I Pass 186: (77.43 seconds) suminf.   31.32556 (418) obj. 61154.2 iterations 819
Cbc0038I Pass 187: (77.49 seconds) suminf.   31.24459 (421) obj. 61154.2 iterations 134
Cbc0038I Pass 188: (77.58 seconds) suminf.   29.95064 (434) obj. 61154.2 iterations 209
Cbc0038I Pass 189: (77.91 seconds) suminf.   28.03254 (444) obj. 61154.2 iterations 903
Cbc0038I Pass 190: (78.01 seconds) suminf.   27.00699 (445) obj. 61154.2 iterations 215
Cbc0038I Pass 191: (78.04 seconds) suminf.   27.23138 (444) obj. 61154.2 iterations 58
Cbc0038I Pass 192: (78.42 seconds) suminf.   28.71538 (443) obj. 61154.2 iterations 1083
Cbc0038I Pass 193: (78.53 seconds) suminf.   26.88504 (436) obj. 61154.2 iterations 290
Cbc0038I Pass 194: (79.10 seconds) suminf.   26.93767 (437) obj. 61154.2 iterations 1536
Cbc0038I Pass 195: (79.25 seconds) suminf.   27.12648 (424) obj. 61154.2 iterations 348
Cbc0038I Pass 196: (79.53 seconds) suminf.   28.02146 (437) obj. 61154.2 iterations 775
Cbc0038I Pass 197: (79.58 seconds) suminf.   27.52705 (422) obj. 61154.2 iterations 101
Cbc0038I Pass 198: (80.05 seconds) suminf.   27.10382 (411) obj. 61154.2 iterations 1394
Cbc0038I Pass 199: (80.09 seconds) suminf.   27.07814 (411) obj. 61154.2 iterations 72
Cbc0038I Pass 200: (80.64 seconds) suminf.   24.81775 (495) obj. 61154.2 iterations 1446
Cbc0038I Pass 201: (80.73 seconds) suminf.   24.01729 (486) obj. 61154.2 iterations 181
Cbc0038I Pass 202: (81.26 seconds) suminf.   24.35799 (410) obj. 61154.2 iterations 1442
Cbc0038I Pass 203: (81.38 seconds) suminf.   23.46841 (395) obj. 61154.2 iterations 278
Cbc0038I Pass 204: (81.84 seconds) suminf.   24.53533 (412) obj. 61154.2 iterations 1295
Cbc0038I Pass 205: (81.93 seconds) suminf.   24.62488 (423) obj. 61154.2 iterations 180
Cbc0038I Pass 206: (82.52 seconds) suminf.   24.17685 (398) obj. 61154.2 iterations 1635
Cbc0038I Pass 207: (82.65 seconds) suminf.   23.27231 (373) obj. 61154.2 iterations 283
Cbc0038I Pass 208: (82.80 seconds) suminf.   24.53839 (372) obj. 61154.2 iterations 361
Cbc0038I Pass 209: (82.84 seconds) suminf.   24.44498 (371) obj. 61154.2 iterations 93
Cbc0038I Pass 210: (83.04 seconds) suminf.   23.40801 (379) obj. 61154.2 iterations 553
Cbc0038I Pass 211: (83.11 seconds) suminf.   22.96184 (378) obj. 61154.2 iterations 163
Cbc0038I Pass 212: (83.24 seconds) suminf.   21.47312 (354) obj. 61154.2 iterations 300
Cbc0038I Pass 213: (83.26 seconds) suminf.   21.38406 (357) obj. 61154.2 iterations 49
Cbc0038I Pass 214: (83.48 seconds) suminf.   23.40983 (419) obj. 61154.2 iterations 561
Cbc0038I Pass 215: (83.60 seconds) suminf.   22.46543 (390) obj. 61154.2 iterations 265
Cbc0038I Pass 216: (83.92 seconds) suminf.   26.64405 (362) obj. 61154.2 iterations 808
Cbc0038I Pass 217: (84.07 seconds) suminf.   23.92901 (369) obj. 61154.2 iterations 275
Cbc0038I Pass 218: (84.48 seconds) suminf.   21.70690 (423) obj. 61154.2 iterations 1319
Cbc0038I Pass 219: (84.50 seconds) suminf.   21.42194 (388) obj. 61154.2 iterations 34
Cbc0038I Pass 220: (84.96 seconds) suminf.   20.48991 (341) obj. 61154.2 iterations 1334
Cbc0038I Pass 221: (85.07 seconds) suminf.   20.33114 (354) obj. 61154.2 iterations 249
Cbc0038I Pass 222: (85.22 seconds) suminf.   21.43189 (318) obj. 61154.2 iterations 438
Cbc0038I Pass 223: (85.39 seconds) suminf.   19.48509 (361) obj. 61154.2 iterations 470
Cbc0038I Pass 224: (85.60 seconds) suminf.   20.61024 (340) obj. 61154.2 iterations 543
Cbc0038I Pass 225: (85.79 seconds) suminf.   19.74429 (341) obj. 61154.2 iterations 374
Cbc0038I Pass 226: (86.20 seconds) suminf.   22.08567 (326) obj. 61154.2 iterations 1074
Cbc0038I Pass 227: (86.37 seconds) suminf.   20.49839 (340) obj. 61154.2 iterations 452
Cbc0038I Pass 228: (86.56 seconds) suminf.   23.33779 (323) obj. 61154.2 iterations 530
Cbc0038I Pass 229: (86.67 seconds) suminf.   22.63163 (379) obj. 61154.2 iterations 214
Cbc0038I Pass 230: (86.94 seconds) suminf.   23.01524 (324) obj. 61154.2 iterations 743
Cbc0038I Pass 231: (87.12 seconds) suminf.   20.33052 (341) obj. 61154.2 iterations 416
Cbc0038I Pass 232: (87.36 seconds) suminf.   23.22028 (343) obj. 61154.2 iterations 715
Cbc0038I Pass 233: (87.52 seconds) suminf.   21.98828 (379) obj. 61154.2 iterations 414
Cbc0038I Pass 234: (88.42 seconds) suminf.   21.05030 (309) obj. 61154.2 iterations 2524
Cbc0038I Pass 235: (88.57 seconds) suminf.   18.34481 (316) obj. 61154.2 iterations 397
Cbc0038I Pass 236: (88.62 seconds) suminf.   17.54280 (307) obj. 61154.2 iterations 112
Cbc0038I Pass 237: (88.96 seconds) suminf.   22.81888 (393) obj. 61154.2 iterations 924
Cbc0038I Pass 238: (89.07 seconds) suminf.   21.17731 (376) obj. 61154.2 iterations 263
Cbc0038I Pass 239: (89.40 seconds) suminf.   18.32743 (312) obj. 61154.2 iterations 973
Cbc0038I Pass 240: (89.57 seconds) suminf.   17.97172 (353) obj. 61154.2 iterations 392
Cbc0038I Pass 241: (90.00 seconds) suminf.   20.16832 (383) obj. 61154.2 iterations 1132
Cbc0038I Pass 242: (90.27 seconds) suminf.   18.28437 (407) obj. 61154.2 iterations 651
Cbc0038I Pass 243: (90.70 seconds) suminf.   16.61508 (288) obj. 61154.2 iterations 1156
Cbc0038I Pass 244: (90.87 seconds) suminf.   14.94210 (312) obj. 61154.2 iterations 446
Cbc0038I Pass 245: (91.51 seconds) suminf.   41.93447 (370) obj. 61154.2 iterations 1804
Cbc0038I No solution found this major pass
Cbc0038I Before mini branch and bound, 604 integers at bound fixed and 0 continuous
Cbc0038I Full problem 9671 rows 2843 columns, reduced to 8433 rows 2239 columns - 625 fixed gives 3564, 882 - ok now
Cbc0038I Mini branch and bound did not improve solution (99.01 seconds)
Cbc0038I After 99.01 seconds - Feasibility pump exiting with objective of 68608 - took 84.06 seconds
Cbc0012I Integer solution of 68608 found by feasibility pump after 0 iterations and 0 nodes (99.02 seconds)
Cbc0038I Full problem 9671 rows 2843 columns, reduced to 7947 rows 2008 columns - 621 fixed gives 3251, 754 - ok now
Cbc0031I 49 added rows had average density of 15.714286
Cbc0013I At root node, 49 cuts changed objective from 31342.84 to 51200 in 10 passes
Cbc0014I Cut generator 0 (Probing) - 51 row cuts average 3.7 elements, 8 column cuts (8 active)  in 0.301 seconds - new frequency is 1
Cbc0014I Cut generator 1 (Gomory) - 157 row cuts average 16.0 elements, 0 column cuts (0 active)  in 2.448 seconds - new frequency is 1
Cbc0014I Cut generator 2 (Knapsack) - 8 row cuts average 8.9 elements, 0 column cuts (0 active)  in 0.041 seconds - new frequency is 1
Cbc0014I Cut generator 3 (Clique) - 0 row cuts average 0.0 elements, 0 column cuts (0 active)  in 0.085 seconds - new frequency is -100
Cbc0014I Cut generator 4 (MixedIntegerRounding2) - 0 row cuts average 0.0 elements, 0 column cuts (0 active)  in 0.046 seconds - new frequency is -100
Cbc0014I Cut generator 5 (FlowCover) - 0 row cuts average 0.0 elements, 0 column cuts (0 active)  in 0.026 seconds - new frequency is -100
Cbc0014I Cut generator 6 (TwoMirCuts) - 258 row cuts average 26.8 elements, 0 column cuts (0 active)  in 1.170 seconds - new frequency is 1
Cbc0014I Cut generator 7 (ZeroHalf) - 195 row cuts average 44.1 elements, 0 column cuts (0 active)  in 2.199 seconds - new frequency is 1
Cbc0010I After 0 nodes, 1 on tree, 68608 best solution, best possible 51200 (242.24 seconds)
Cbc0038I Full problem 9671 rows 2843 columns, reduced to 7392 rows 1852 columns - 614 fixed gives 2794, 608 - ok now
Cbc0038I Full problem 9671 rows 2843 columns, reduced to 7247 rows 1869 columns - 598 fixed gives 2927, 653 - ok now
Cbc0010I After 100 nodes, 30 on tree, 68608 best solution, best possible 51200 (890.21 seconds)
Cbc0010I After 200 nodes, 44 on tree, 68608 best solution, best possible 51200 (1366.52 seconds)
Cbc0038I Full problem 9671 rows 2843 columns, reduced to 6775 rows 1802 columns - 555 fixed gives 2897, 669 - ok now
Cbc0010I After 300 nodes, 44 on tree, 68608 best solution, best possible 51200 (1638.84 seconds)
Cbc0020I Exiting on maximum time
Cbc0005I Partial search - best objective 68608 (best possible 51200), took 1198014 iterations and 317 nodes (1801.65 seconds)
Cbc0032I Strong branching done 4528 times (426390 iterations), fathomed 13 nodes and fixed 262 variables
Cbc0035I Maximum depth 69, 0 variables fixed on reduced cost
Cuts at root node changed objective from 31342.8 to 51200
Probing was tried 229 times and created 2395 cuts of which 0 were active after adding rounds of cuts (2.617 seconds)
Gomory was tried 227 times and created 303 cuts of which 0 were active after adding rounds of cuts (10.405 seconds)
Knapsack was tried 227 times and created 42 cuts of which 0 were active after adding rounds of cuts (0.632 seconds)
Clique was tried 10 times and created 0 cuts of which 0 were active after adding rounds of cuts (0.085 seconds)
MixedIntegerRounding2 was tried 10 times and created 0 cuts of which 0 were active after adding rounds of cuts (0.046 seconds)
FlowCover was tried 10 times and created 0 cuts of which 0 were active after adding rounds of cuts (0.026 seconds)
TwoMirCuts was tried 227 times and created 788 cuts of which 0 were active after adding rounds of cuts (3.043 seconds)
ZeroHalf was tried 227 times and created 2213 cuts of which 0 were active after adding rounds of cuts (59.594 seconds)
ImplicationCuts was tried 19 times and created 13 cuts of which 0 were active after adding rounds of cuts (0.003 seconds)

Result - Stopped on time limit

Objective value:                68608.00000000
Lower bound:                    51200.000
Gap:                            0.34
Enumerated nodes:               317
Total iterations:               1198014
Time (CPU seconds):             1803.84
Time (Wallclock seconds):       1804.01

Total time (CPU seconds):       1803.87   (Wallclock seconds):       1804.05

